(set-logic QF_FPBV)
(set-option :produce-models true)
(set-info :source |Random FP created by PyMPF|)
(set-info :category random)
(set-info :status sat)
;; fp.from.sbv(BitVec 64)
(declare-const x (_ BitVec 64))
(assert (bvsge x #b0111110110100110100011110111000110100001010110001100110110110111))
;; x should be 9054081819075988919
(declare-const r Float32)
(assert (= r ((_ to_fp 8 24) RTZ x)))
(assert (fp.geq r (fp #b0 #b10111101 #b11110110100110100011110)))
(check-sat)
(exit)
